10	6	3.2
2 2 2 4 3 2 2 1 9 4 6
2 4 1 2 2 3 4 6 6 1 5 1 6 2 1 3 8 5 3 6 5
2 2 1 9 5 9 1 3 2
2 4 2 2 3 3 4 9 5 2 1 3 8
2 4 1 9 2 7 3 2 6 1 2 1 4 3 6
2 6 1 4 2 4 3 8 4 8 5 9 6 9 1 2 5
2 6 1 6 2 7 3 4 4 7 5 9 6 1 1 6 3
2 6 1 6 2 8 3 7 4 9 5 2 6 9 5 1 9 2 8 3 1 4 3 5 4
2 4 1 3 2 8 3 7 4 2 1 2 2
2 6 1 9 2 6 3 3 4 4 5 3 6 8 1 1 1
